6664
101000100000000110001010010010
2 0 2 2 2 2 2 2 2 2 2 15 2 6 6 6 6 6 6 6 6 6 6 6 15 15 6 15 15 15 15 15 15 15 15 15 16 16 16 16 16 16 20 20 20 20 16 20 22 6 22 25 0 22 22 16 25 25 25 25 25 25 20 0 28 2 28 28 0 28 